(set-logic QF_S)
(declare-fun var0 () String)
(assert (RegexIn var0 (RegexConcat (RegexUnion (RegexPlus (Str2Reg "00")) (RegexPlus (Str2Reg "111"))) (RegexConcat (RegexPlus (RegexUnion (Str2Reg "2") (Str2Reg "33"))) (RegexConcat (RegexUnion (RegexUnion (Str2Reg "44") (Str2Reg "555")) (RegexUnion (Str2Reg "66") (Str2Reg "77"))) (RegexConcat (RegexPlus (RegexPlus (Str2Reg "888"))) (RegexConcat (RegexUnion (RegexStar (Str2Reg "999")) (RegexStar (Str2Reg "a"))) (RegexConcat (RegexStar (RegexUnion (Str2Reg "b") (Str2Reg "ccc"))) (RegexConcat (RegexPlus (RegexStar (Str2Reg "dd"))) (RegexConcat (RegexPlus (RegexStar (Str2Reg "ee"))) (RegexConcat (RegexUnion (RegexUnion (Str2Reg "ff") (Str2Reg "ggg")) (RegexUnion (Str2Reg "hh") (Str2Reg "ii"))) (RegexConcat (RegexStar (RegexStar (Str2Reg "jj"))) (RegexConcat (RegexStar (RegexPlus (Str2Reg "k"))) (RegexConcat (RegexUnion (RegexStar (Str2Reg "l")) (RegexStar (Str2Reg "m"))) (RegexConcat (RegexUnion (RegexPlus (Str2Reg "n")) (RegexPlus (Str2Reg "o"))) (RegexConcat (RegexUnion (RegexStar (Str2Reg "pp")) (RegexStar (Str2Reg "q"))) (RegexConcat (RegexStar (RegexStar (Str2Reg "rr"))) (RegexConcat (RegexStar (RegexUnion (Str2Reg "ss") (Str2Reg "t"))) (RegexConcat (RegexPlus (RegexUnion (Str2Reg "u") (Str2Reg "v"))) (RegexConcat (RegexUnion (RegexPlus (Str2Reg "www")) (RegexPlus (Str2Reg "xx"))) (RegexConcat (RegexUnion (RegexPlus (Str2Reg "y")) (RegexPlus (Str2Reg "z"))) (RegexConcat (RegexUnion (RegexStar (Str2Reg "A")) (RegexStar (Str2Reg "BB"))) (RegexConcat (RegexUnion (RegexUnion (Str2Reg "C") (Str2Reg "DDD")) (RegexUnion (Str2Reg "E") (Str2Reg "FF"))) (RegexConcat (RegexPlus (RegexPlus (Str2Reg "GG"))) (RegexConcat (RegexUnion (RegexPlus (Str2Reg "H")) (RegexPlus (Str2Reg "III"))) (RegexConcat (RegexUnion (RegexStar (Str2Reg "J")) (RegexStar (Str2Reg "KK"))) (RegexConcat (RegexPlus (RegexStar (Str2Reg "LL"))) (RegexConcat (RegexPlus (RegexUnion (Str2Reg "M") (Str2Reg "NN"))) (RegexConcat (RegexUnion (RegexStar (Str2Reg "O")) (RegexStar (Str2Reg "PPP"))) (RegexConcat (RegexPlus (RegexUnion (Str2Reg "Q") (Str2Reg "RR"))) (RegexConcat (RegexStar (RegexPlus (Str2Reg "S"))) (RegexConcat (RegexUnion (RegexStar (Str2Reg "TT")) (RegexStar (Str2Reg "UUU"))) (RegexConcat (RegexPlus (RegexUnion (Str2Reg "VVV") (Str2Reg "W"))) (RegexConcat (RegexUnion (RegexUnion (Str2Reg "XXX") (Str2Reg "YY")) (RegexUnion (Str2Reg "ZZ") (Str2Reg "!!"))) (RegexConcat (RegexUnion (RegexStar (Str2Reg "\"")) (RegexStar (Str2Reg "#"))) (RegexConcat (RegexUnion (RegexStar (Str2Reg "$$")) (RegexStar (Str2Reg "%"))) (RegexConcat (RegexStar (RegexUnion (Str2Reg "&&") (Str2Reg "'''"))) (RegexConcat (RegexPlus (RegexStar (Str2Reg "(("))) (RegexConcat (RegexPlus (RegexStar (Str2Reg ")"))) (RegexConcat (RegexStar (RegexStar (Str2Reg "***"))) (RegexConcat (RegexUnion (RegexStar (Str2Reg "+++")) (RegexStar (Str2Reg ",,,"))) (RegexConcat (RegexPlus (RegexStar (Str2Reg "---"))) (RegexConcat (RegexPlus (RegexPlus (Str2Reg "..."))) (RegexConcat (RegexPlus (RegexStar (Str2Reg "//"))) (RegexConcat (RegexPlus (RegexStar (Str2Reg "::"))) (RegexConcat (RegexUnion (RegexUnion (Str2Reg ";") (Str2Reg "<<")) (RegexUnion (Str2Reg "==") (Str2Reg ">"))) (RegexConcat (RegexPlus (RegexUnion (Str2Reg "???") (Str2Reg "@"))) (RegexConcat (RegexUnion (RegexStar (Str2Reg "[[[")) (RegexStar (Str2Reg "\\\\\\"))) (RegexConcat (RegexStar (RegexPlus (Str2Reg "]]]"))) (RegexConcat (RegexStar (RegexUnion (Str2Reg "^") (Str2Reg "___"))) (RegexConcat (RegexUnion (RegexStar (Str2Reg "`")) (RegexStar (Str2Reg "{{{"))) (RegexConcat (RegexUnion (RegexUnion (Str2Reg "|") (Str2Reg "}")) (RegexUnion (Str2Reg "~~~") (Str2Reg "0"))) (RegexConcat (RegexUnion (RegexStar (Str2Reg "1")) (RegexStar (Str2Reg "2"))) (RegexConcat (RegexStar (RegexUnion (Str2Reg "3") (Str2Reg "444"))) (RegexConcat (RegexStar (RegexUnion (Str2Reg "55") (Str2Reg "66"))) (RegexConcat (RegexStar (RegexPlus (Str2Reg "7"))) (RegexConcat (RegexStar (RegexPlus (Str2Reg "88"))) (RegexConcat (RegexUnion (RegexPlus (Str2Reg "9")) (RegexPlus (Str2Reg "aa"))) (RegexConcat (RegexUnion (RegexStar (Str2Reg "bb")) (RegexStar (Str2Reg "c"))) (RegexConcat (RegexUnion (RegexUnion (Str2Reg "d") (Str2Reg "eee")) (RegexUnion (Str2Reg "f") (Str2Reg "gg"))) (RegexConcat (RegexStar (RegexPlus (Str2Reg "h"))) (RegexConcat (RegexUnion (RegexStar (Str2Reg "ii")) (RegexStar (Str2Reg "jjj"))) (RegexConcat (RegexUnion (RegexPlus (Str2Reg "kkk")) (RegexPlus (Str2Reg "l"))) (RegexConcat (RegexStar (RegexUnion (Str2Reg "m") (Str2Reg "n"))) (RegexConcat (RegexUnion (RegexUnion (Str2Reg "o") (Str2Reg "p")) (RegexUnion (Str2Reg "qqq") (Str2Reg "rr"))) (RegexConcat (RegexPlus (RegexPlus (Str2Reg "s"))) (RegexConcat (RegexUnion (RegexPlus (Str2Reg "tt")) (RegexPlus (Str2Reg "uuu"))) (RegexConcat (RegexStar (RegexUnion (Str2Reg "vv") (Str2Reg "ww"))) (RegexConcat (RegexUnion (RegexPlus (Str2Reg "xx")) (RegexPlus (Str2Reg "y"))) (RegexConcat (RegexStar (RegexPlus (Str2Reg "zzz"))) (RegexConcat (RegexUnion (RegexStar (Str2Reg "AAA")) (RegexStar (Str2Reg "BB"))) (RegexConcat (RegexUnion (RegexStar (Str2Reg "CC")) (RegexStar (Str2Reg "DD"))) (RegexConcat (RegexPlus (RegexPlus (Str2Reg "E"))) (RegexConcat (RegexPlus (RegexUnion (Str2Reg "F") (Str2Reg "GG"))) (RegexConcat (RegexUnion (RegexStar (Str2Reg "H")) (RegexStar (Str2Reg "II"))) (RegexConcat (RegexStar (RegexStar (Str2Reg "J"))) (RegexConcat (RegexStar (RegexStar (Str2Reg "KKK"))) (RegexConcat (RegexStar (RegexStar (Str2Reg "L"))) (RegexConcat (RegexUnion (RegexUnion (Str2Reg "MMM") (Str2Reg "NN")) (RegexUnion (Str2Reg "OO") (Str2Reg "PP"))) (RegexConcat (RegexUnion (RegexUnion (Str2Reg "QQQ") (Str2Reg "R")) (RegexUnion (Str2Reg "SSS") (Str2Reg "TTT"))) (RegexConcat (RegexUnion (RegexStar (Str2Reg "U")) (RegexStar (Str2Reg "V"))) (RegexConcat (RegexStar (RegexStar (Str2Reg "WW"))) (RegexConcat (RegexStar (RegexPlus (Str2Reg "XXX"))) (RegexConcat (RegexStar (RegexPlus (Str2Reg "YYY"))) (RegexConcat (RegexUnion (RegexStar (Str2Reg "ZZZ")) (RegexStar (Str2Reg "!"))) (RegexConcat (RegexPlus (RegexStar (Str2Reg "\""))) (RegexConcat (RegexPlus (RegexPlus (Str2Reg "##"))) (RegexConcat (RegexUnion (RegexStar (Str2Reg "$$")) (RegexStar (Str2Reg "%"))) (RegexConcat (RegexUnion (RegexStar (Str2Reg "&")) (RegexStar (Str2Reg "'''"))) (RegexConcat (RegexStar (RegexStar (Str2Reg "(("))) (RegexConcat (RegexUnion (RegexUnion (Str2Reg ")))") (Str2Reg "*")) (RegexUnion (Str2Reg "+") (Str2Reg ",,"))) (RegexConcat (RegexStar (RegexStar (Str2Reg "--"))) (RegexConcat (RegexPlus (RegexUnion (Str2Reg "..") (Str2Reg "/"))) (RegexConcat (RegexStar (RegexUnion (Str2Reg ":::") (Str2Reg ";"))) (RegexConcat (RegexPlus (RegexStar (Str2Reg "<"))) (RegexConcat (RegexPlus (RegexUnion (Str2Reg "==") (Str2Reg ">>"))) (RegexConcat (RegexPlus (RegexUnion (Str2Reg "???") (Str2Reg "@"))) (RegexConcat (RegexStar (RegexStar (Str2Reg "[[["))) (RegexConcat (RegexPlus (RegexStar (Str2Reg "\\"))) (RegexConcat (RegexUnion (RegexUnion (Str2Reg "]]]") (Str2Reg "^")) (RegexUnion (Str2Reg "___") (Str2Reg "``"))) (RegexUnion (RegexStar (Str2Reg "{")) (RegexStar (Str2Reg "||")))))))))))))))))))))))))))))))))))))))))))))))))))))))))))))))))))))))))))))))))))))))))))))))))))))))
(check-sat)